NAME : portcgen-26-10
COMMENT : portcgen N=26, seed=10
TYPE : TSP
DIMENSION : 26
EDGE_WEIGHT_TYPE : EUC_2D
NODE_COORD_SECTION
1 -186326 310987
2 204095 137163
3 83156 83682
4 248480 -91241
5 13152 -54551
6 -38123 -8831
7 202105 45415
8 76632 87514
9 -305151 13527
10 -204868 195396
11 53183 -228065
12 -56752 68406
13 -224545 -191811
14 -125590 201325
15 99828 -74409
16 -237543 -121935
17 276140 24659
18 26494 -319458
19 -118565 -138504
20 28548 621274
21 -77740 31367
22 -68884 -155404
23 -238477 15146
24 198597 -8780
25 121022 183045
26 -113613 -164202
